NAME 
ROWS
 N  OBJ
 L  R0      
 L  R1      
 L  R2      
 E  R3      
 E  R4      
 E  R5      
 E  R6      
 E  R7      
 E  R8      
 E  R9      
 E  R10     
 E  R11     
 E  R12     
COLUMNS
    MARKER    'MARKER'                 'INTORG'
    I0(6)     OBJ       -11
    I0(6)     R0        193
    I0(6)     R1        -164
    I0(6)     R2        -121
    I0(6)     R3        17
    I0(6)     R8        9
    I0(6)     R12       1
    I1(8)     OBJ       -146
    I1(8)     R0        -75
    I1(8)     R1        -129
    I1(8)     R2        -65
    I1(8)     R3        3
    I1(8)     R4        1
    I1(8)     R6        19
    I1(8)     R7        8
    I1(8)     R12       1
    I2(6)     OBJ       53
    I2(6)     R0        63
    I2(6)     R1        8
    I2(6)     R2        -143
    I2(6)     R4        16
    I2(6)     R7        17
    I2(6)     R12       1
    I3(6)     OBJ       -132
    I3(6)     R0        121
    I3(6)     R1        151
    I3(6)     R2        -88
    I3(6)     R4        14
    I3(6)     R6        2
    I3(6)     R12       1
    I4(8)     OBJ       170
    I4(8)     R0        -186
    I4(8)     R1        160
    I4(8)     R2        27
    I4(8)     R3        7
    I4(8)     R4        7
    I4(8)     R7        -1
    I4(8)     R8        17
    I4(8)     R12       1
    I5(6)     OBJ       -182
    I5(6)     R0        -179
    I5(6)     R1        113
    I5(6)     R2        158
    I5(6)     R3        18
    I5(6)     R4        14
    I5(6)     R12       1
    MARKER    'MARKER'                 'INTEND'
    C6(9)     OBJ       -5
    C6(9)     R0        -4
    C6(9)     R1        2
    C6(9)     R2        5
    C6(9)     R3        11
    C6(9)     R4        5
    C6(9)     R6        1
    C6(9)     R8        2
    C6(9)     R9        16
    C6(9)     R10       16
    C7(8)     OBJ       -7
    C7(8)     R0        -7
    C7(8)     R1        9
    C7(8)     R2        -4
    C7(8)     R3        3
    C7(8)     R5        3
    C7(8)     R6        14
    C7(8)     R9        8
    C7(8)     R10       11
    C8(6)     OBJ       6
    C8(6)     R0        -5
    C8(6)     R1        -10
    C8(6)     R2        -7
    C8(6)     R4        10
    C8(6)     R5        9
    C8(6)     R6        10
    C9(7)     OBJ       7
    C9(7)     R0        7
    C9(7)     R1        -2
    C9(7)     R2        -5
    C9(7)     R3        15
    C9(7)     R5        -1
    C9(7)     R6        19
    C9(7)     R10       15
    C10(1)    R3        1
    C11(1)    R4        1
    C12(1)    R5        1
    C13(1)    R6        1
    C14(1)    R7        1
    C15(1)    R8        1
    C16(1)    R9        1
    C17(1)    R10       1
    C18(1)    R11       1
    C19(1)    R12       1
RHS
    RHS1      R0        -2.9327314814814815e+02
    RHS1      R1        2.8412037037037024e+01
    RHS1      R2        8.4657407407407433e+01
    RHS1      R3        82
    RHS1      R4        53
    RHS1      R5        90
    RHS1      R6        84
    RHS1      R7        66
    RHS1      R8        54
    RHS1      R9        67
    RHS1      R10       99
    RHS1      R11       68
    RHS1      R12       2
BOUNDS
 UP BND1      I0(6)     1
 UP BND1      I1(8)     1
 UP BND1      I2(6)     1
 UP BND1      I3(6)     1
 UP BND1      I4(8)     1
 UP BND1      I5(6)     1
ENDATA
